(set-logic QF_S)
(declare-fun var0 () String)
(assert (str.in.re var0 (re.++ (re.union (re.+ (str.to.re "000")) (re.+ (str.to.re "111"))) (re.++ (re.* (re.* (str.to.re "22"))) (re.++ (re.union (re.+ (str.to.re "333")) (re.+ (str.to.re "44"))) (re.++ (re.union (re.+ (str.to.re "555")) (re.+ (str.to.re "6"))) (re.++ (re.+ (re.* (str.to.re "777"))) (re.++ (re.+ (re.+ (str.to.re "888"))) (re.++ (re.* (re.union (str.to.re "9") (str.to.re "a"))) (re.++ (re.+ (re.+ (str.to.re "bb"))) (re.++ (re.* (re.+ (str.to.re "c"))) (re.++ (re.+ (re.union (str.to.re "d") (str.to.re "eee"))) (re.++ (re.union (re.* (str.to.re "fff")) (re.* (str.to.re "gg"))) (re.++ (re.union (re.union (str.to.re "h") (str.to.re "ii")) (re.union (str.to.re "jjj") (str.to.re "kk"))) (re.++ (re.* (re.union (str.to.re "lll") (str.to.re "mmm"))) (re.++ (re.* (re.+ (str.to.re "nn"))) (re.++ (re.union (re.+ (str.to.re "oo")) (re.+ (str.to.re "pp"))) (re.++ (re.* (re.* (str.to.re "qq"))) (re.++ (re.* (re.* (str.to.re "rr"))) (re.++ (re.union (re.union (str.to.re "sss") (str.to.re "ttt")) (re.union (str.to.re "uuu") (str.to.re "vv"))) (re.++ (re.union (re.union (str.to.re "ww") (str.to.re "xxx")) (re.union (str.to.re "y") (str.to.re "zzz"))) (re.++ (re.* (re.union (str.to.re "AA") (str.to.re "BBB"))) (re.++ (re.union (re.* (str.to.re "CCC")) (re.* (str.to.re "DDD"))) (re.++ (re.+ (re.* (str.to.re "E"))) (re.++ (re.+ (re.* (str.to.re "FF"))) (re.++ (re.union (re.* (str.to.re "GGG")) (re.* (str.to.re "H"))) (re.++ (re.* (re.+ (str.to.re "II"))) (re.++ (re.* (re.union (str.to.re "JJJ") (str.to.re "K"))) (re.++ (re.* (re.+ (str.to.re "LLL"))) (re.++ (re.+ (re.union (str.to.re "MM") (str.to.re "NN"))) (re.++ (re.+ (re.union (str.to.re "O") (str.to.re "PPP"))) (re.++ (re.* (re.* (str.to.re "QQ"))) (re.++ (re.union (re.* (str.to.re "R")) (re.* (str.to.re "SS"))) (re.++ (re.+ (re.* (str.to.re "T"))) (re.++ (re.* (re.union (str.to.re "U") (str.to.re "V"))) (re.++ (re.union (re.+ (str.to.re "WWW")) (re.+ (str.to.re "X"))) (re.++ (re.union (re.union (str.to.re "YYY") (str.to.re "ZZZ")) (re.union (str.to.re "!!!") (str.to.re """"))) (re.++ (re.+ (re.+ (str.to.re "##"))) (re.++ (re.union (re.union (str.to.re "$$") (str.to.re "%%")) (re.union (str.to.re "&") (str.to.re "'''"))) (re.++ (re.+ (re.+ (str.to.re "("))) (re.++ (re.* (re.+ (str.to.re ")"))) (re.++ (re.+ (re.union (str.to.re "*") (str.to.re "+"))) (re.++ (re.+ (re.* (str.to.re ",,,"))) (re.++ (re.union (re.union (str.to.re "---") (str.to.re ".")) (re.union (str.to.re "//") (str.to.re ":::"))) (re.++ (re.* (re.* (str.to.re ";"))) (re.++ (re.union (re.* (str.to.re "<<<")) (re.* (str.to.re "="))) (re.++ (re.union (re.union (str.to.re ">") (str.to.re "???")) (re.union (str.to.re "@@") (str.to.re "[[["))) (re.++ (re.union (re.* (str.to.re "\\\\\\")) (re.* (str.to.re "]]"))) (re.++ (re.+ (re.+ (str.to.re "^^"))) (re.++ (re.+ (re.union (str.to.re "___") (str.to.re "`"))) (re.++ (re.union (re.+ (str.to.re "{{{")) (re.+ (str.to.re "|||"))) (re.++ (re.+ (re.+ (str.to.re "}}}"))) (re.++ (re.+ (re.+ (str.to.re "~"))) (re.++ (re.+ (re.union (str.to.re "0") (str.to.re "11"))) (re.++ (re.+ (re.+ (str.to.re "222"))) (re.++ (re.* (re.+ (str.to.re "3"))) (re.++ (re.union (re.union (str.to.re "44") (str.to.re "55")) (re.union (str.to.re "66") (str.to.re "7"))) (re.++ (re.+ (re.union (str.to.re "8") (str.to.re "999"))) (re.++ (re.* (re.union (str.to.re "aa") (str.to.re "bbb"))) (re.++ (re.union (re.union (str.to.re "cc") (str.to.re "ddd")) (re.union (str.to.re "ee") (str.to.re "fff"))) (re.++ (re.+ (re.union (str.to.re "gg") (str.to.re "h"))) (re.++ (re.union (re.+ (str.to.re "i")) (re.+ (str.to.re "jjj"))) (re.++ (re.union (re.union (str.to.re "kk") (str.to.re "l")) (re.union (str.to.re "mm") (str.to.re "n"))) (re.++ (re.union (re.+ (str.to.re "ooo")) (re.+ (str.to.re "p"))) (re.++ (re.union (re.* (str.to.re "q")) (re.* (str.to.re "rrr"))) (re.++ (re.+ (re.* (str.to.re "ss"))) (re.++ (re.* (re.union (str.to.re "tt") (str.to.re "uu"))) (re.++ (re.+ (re.* (str.to.re "vvv"))) (re.++ (re.+ (re.union (str.to.re "www") (str.to.re "xxx"))) (re.++ (re.union (re.* (str.to.re "yy")) (re.* (str.to.re "zzz"))) (re.++ (re.* (re.* (str.to.re "AA"))) (re.++ (re.+ (re.union (str.to.re "BBB") (str.to.re "CCC"))) (re.++ (re.+ (re.+ (str.to.re "DD"))) (re.++ (re.union (re.+ (str.to.re "EEE")) (re.+ (str.to.re "FF"))) (re.++ (re.* (re.* (str.to.re "G"))) (re.++ (re.+ (re.* (str.to.re "HHH"))) (re.++ (re.union (re.union (str.to.re "III") (str.to.re "JJ")) (re.union (str.to.re "K") (str.to.re "LL"))) (re.++ (re.union (re.+ (str.to.re "M")) (re.+ (str.to.re "NN"))) (re.++ (re.+ (re.+ (str.to.re "O"))) (re.++ (re.* (re.union (str.to.re "PP") (str.to.re "QQ"))) (re.++ (re.* (re.union (str.to.re "R") (str.to.re "SSS"))) (re.++ (re.+ (re.* (str.to.re "TT"))) (re.++ (re.* (re.* (str.to.re "UU"))) (re.++ (re.+ (re.* (str.to.re "VV"))) (re.++ (re.+ (re.+ (str.to.re "W"))) (re.++ (re.+ (re.+ (str.to.re "XX"))) (re.+ (re.union (str.to.re "YY") (str.to.re "Z")))))))))))))))))))))))))))))))))))))))))))))))))))))))))))))))))))))))))))))))))))))))))
(check-sat)